
Gurobi 9.5.1 (linux64) logging started Tue 16 Aug 2022 03:39:00 PM MST

Set parameter LogFile to value "/home/local/ASUAD/kmajd1/NNRepLayer_v2/demos/walking_example/global_constraint_upper_10/repair_net/logs/opt_log_multi_15.log"
Gurobi Optimizer version 9.5.1 build v9.5.1rc2 (linux64)
Thread count: 48 physical cores, 96 logical processors, using up to 45 threads
Optimize a model with 16863 rows, 10742 columns and 145535 nonzeros
Model fingerprint: 0x2decdc28
Model has 149 quadratic objective terms
Variable types: 5974 continuous, 4768 integer (4768 binary)
Coefficient statistics:
  Matrix range     [9e-05, 3e+02]
  Objective range  [2e-03, 1e+00]
  QObjective range [1e-02, 1e-02]
  Bounds range     [1e+00, 2e+03]
  RHS range        [4e-05, 3e+02]

Concurrent MIP optimizer: 3 concurrent instances (15 threads per instance)

Presolve removed 426 rows and 64 columns
Presolve time: 0.29s
Presolved: 16437 rows, 10678 columns, 144981 nonzeros
Presolved model has 149 quadratic objective terms
Variable types: 5910 continuous, 4768 integer (4768 binary)
Root relaxation presolve removed 4768 rows and 4768 columns
Root relaxation presolved: 11669 rows, 5910 columns, 130677 nonzeros
Root relaxation presolved model has 149 quadratic objective terms


Root relaxation: objective 3.332123e+01, 6555 iterations, 0.51 seconds (0.95 work units)

    Nodes    |    Current Node    |     Objective Bounds      |     Work
 Expl Unexpl |  Obj  Depth IntInf | Incumbent    BestBd   Gap | It/Node Time

     0     0      -    -    -      194.52413   33.32123  82.9%     -    1s
     0     0      -    -    -      192.72221   33.32123  82.7%     -    2s
     0     2      -    -    -      187.26553   33.32123  82.2%     -    6s
    99   124      -    -    -      187.26553   33.32123  82.2%     -   10s
  1074  1090      -    -    -       36.96014   33.32123  9.85%     -   25s

Instance 0 was solved

Explored 1089 nodes (97171 simplex iterations) in 25.19 seconds (46.13 work units)
Thread count was 15 (of 96 available processors)

Solution count 10: 36.9601 61.4833 105.501 ... 192.722 

Optimal solution found (tolerance 1.10e-01)
Best objective 3.696013791156e+01, best bound 3.332123072930e+01, gap 9.8455%
